c File: instances/16_0.40_1.col
c
c Description: Random graph of size 16 vertices and P(0.39999999999999997) of edges between any two vertices.
p col 16 120
e 1 4
e 1 7
e 1 9
e 1 11
e 1 14
e 2 3
e 2 9
e 2 10
e 2 11
e 2 12
e 3 8
e 3 9
e 4 6
e 4 7
e 4 8
e 4 13
e 5 6
e 5 7
e 5 8
e 5 10
e 5 12
e 6 7
e 6 14
e 7 15
e 7 16
e 8 10
e 8 11
e 8 13
e 8 15
e 9 10
e 9 12
e 10 11
e 10 12
e 10 16
e 11 12
e 11 14
e 11 15
e 11 16
e 12 13
e 12 14
e 12 16
e 13 14
e 14 15
e 14 16